2 42 15 40 57 25 12 28 
92 30 79 29 60 
32 26 22 74 13 58 
33 41 73 4 100 
52 69 24 78 35 
19 53 87 56 59 
90 65 3 68 72 97 
75 63 96 91 85 93 
31 1 62 88 8 98 17 94 
82 47 99 95 6 5 61 
51 81 76 9 66 20 71 
7 27 18 21 55 70 
83 16 86 44 14 43 37 50 
54 39 23 10 48 89 
46 36 11 49 77 80 
45 38 84 34 
64 
67 

